qe/outputs/qe/qe_queries_cbrdelay_obs_redo/T=5,eliminate=[I_0,I_1,I_2,I_3,I_4,L_4,C,lhs=B].smt2
; benchmark generated from python API
(set-info :status unknown)
(declare-fun S_2 () Real)
(declare-fun L_2 () Real)
(declare-fun A_2 () Real)
(declare-fun S_3 () Real)
(declare-fun A_3 () Real)
(declare-fun L_3 () Real)
(declare-fun L_0 () Real)
(declare-fun S_0 () Real)
(declare-fun A_0 () Real)
(declare-fun A_4 () Real)
(declare-fun S_4 () Real)
(declare-fun B () Real)
(declare-fun A_1 () Real)
(declare-fun L_1 () Real)
(declare-fun S_1 () Real)
(assert
 (let (($x34 (>= L_0 0.0)))
 (let (($x517 (>= B 5.0)))
 (let ((?x4400 (* (/ 1.0 2.0) B)))
 (let ((?x2620 (* (- (/ 1.0 2.0)) A_3)))
 (let ((?x2825 (* (/ 1.0 2.0) L_3)))
 (let (($x4771 (<= (+ ?x2825 ?x2620 ?x4400 (* (- (/ 1.0 2.0)) A_1) S_2 (* (/ 1.0 2.0) L_0)) 0.0)))
 (let (($x71 (= L_3 L_2)))
 (let (($x3661 (<= (+ (* (- 1.0) L_1) A_1 (* (- 1.0) S_2)) 0.0)))
 (let ((?x344 (* (- 1.0) S_2)))
 (let ((?x230 (* (- 1.0) B)))
 (let ((?x366 (* (- 1.0) A_2)))
 (let ((?x273 (* (- 1.0) L_3)))
 (let ((?x4233 (* (/ 1.0 3.0) S_0)))
 (let (($x10930 (<= (+ (* (/ 4.0 3.0) L_3) (* (- (/ 4.0 3.0)) A_3) S_4 (* (/ 4.0 3.0) B) ?x4233) 0.0)))
 (let ((?x2039 (* 3.0 B)))
 (let ((?x239 (* (- 1.0) L_1)))
 (let ((?x772 (* 2.0 S_4)))
 (let ((?x1355 (* (- 3.0) A_3)))
 (let ((?x1189 (* 3.0 L_3)))
 (let ((?x1353 (* 2.0 B)))
 (let ((?x256 (* (- 1.0) L_2)))
 (let ((?x1595 (* (- 2.0) A_3)))
 (let ((?x1594 (* 2.0 L_3)))
 (let (($x1923 (<= (+ ?x1594 ?x1595 S_4 A_2 ?x256 ?x1353) 0.0)))
 (let (($x13350 (<= (+ L_3 (* (- 1.0) A_3) B (* 2.0 S_1) (* (- 1.0) S_0)) 0.0)))
 (let ((?x1073 (* (- 1.0) S_0)))
 (let ((?x973 (* (- 2.0) L_2)))
 (let ((?x964 (* 2.0 A_2)))
 (let ((?x2839 (* (/ 1.0 2.0) S_1)))
 (let ((?x4422 (* (/ 3.0 2.0) B)))
 (let (($x21393 (or $x71 $x1923 (<= (+ (* (/ 3.0 2.0) L_3) (* (- (/ 3.0 2.0)) A_3) S_4 ?x4422 ?x2839) 0.0))))
 (let (($x19330 (or $x3661 (<= (+ S_4 ?x366 L_2 (* (- 2.0) S_2) (* 2.0 S_0)) 0.0))))
 (let ((?x351 (* (- 1.0) S_3)))
 (let ((?x3427 (* (- (/ 2.0 3.0)) B)))
 (let ((?x11315 (* (/ 2.0 3.0) A_3)))
 (let ((?x2996 (* (- (/ 2.0 3.0)) L_3)))
 (let ((?x4417 (* (- (/ 1.0 2.0)) L_0)))
 (let ((?x4413 (* (/ 1.0 2.0) A_1)))
 (let ((?x4408 (* (- (/ 1.0 2.0)) B)))
 (let ((?x2822 (* (/ 1.0 2.0) A_3)))
 (let ((?x2604 (* (- (/ 1.0 2.0)) L_3)))
 (let (($x1388 (<= (+ A_2 ?x351 ?x256) 0.0)))
 (let (($x39353 (or $x1388 (<= (+ ?x2604 ?x2822 ?x4408 ?x4413 ?x351 ?x4417) 0.0) (<= (+ ?x2996 ?x11315 ?x3427 ?x351 ?x4233) 0.0))))
 (let ((?x4226 (* (/ 2.0 3.0) S_0)))
 (let ((?x3383 (* (- (/ 1.0 3.0)) B)))
 (let ((?x9579 (* (/ 1.0 3.0) A_3)))
 (let ((?x2799 (* (- (/ 1.0 3.0)) L_3)))
 (let ((?x212 (* (- 1.0) L_0)))
 (let ((?x960 (* 2.0 L_2)))
 (let ((?x961 (* (- 2.0) A_2)))
 (let (($x51 (= L_1 L_0)))
 (let (($x1842 (not $x51)))
 (let (($x61 (= L_2 L_1)))
 (let (($x20131 (or $x71 (<= (+ ?x1594 ?x1595 ?x1353 (* 3.0 S_2) (* (- 1.0) S_1)) 0.0))))
 (let (($x13358 (<= (+ ?x2825 ?x2620 ?x4400 (* (- 1.0) A_0) (* (/ 3.0 2.0) S_1) L_0) 0.0)))
 (let ((?x1097 (* (- 1.0) A_0)))
 (let ((?x369 (* (- 1.0) A_3)))
 (let (($x18548 (or $x71 (<= (+ L_3 ?x369 A_2 ?x256 B ?x1097 S_1 L_0) 0.0) $x13358)))
 (let (($x2504 (<= (+ S_4 (* (- 2.0) L_1) (* 2.0 A_1) (* (- 3.0) S_3)) 0.0)))
 (let (($x18810 (or $x1388 $x2504 (<= (+ (* (/ 1.0 2.0) S_4) ?x351 (* (/ 1.0 2.0) S_0)) 0.0))))
 (let (($x10901 (<= (+ ?x1189 ?x1355 ?x230 (* 4.0 A_2) ?x1073 (* (- 4.0) L_2)) 0.0)))
 (let (($x448 (<= 0.0 (+ ?x273 L_2))))
 (let (($x39598 (or $x61 (<= (+ L_3 ?x369 S_4 B ?x366 A_1 ?x239 L_2) 0.0) (not (<= 0.0 (+ L_3 ?x369 S_4 (* (- 1.0) A_1) S_0 L_0))))))
 (let ((?x6081 (* (/ 1.0 2.0) L_2)))
 (let ((?x2108 (* (/ 1.0 2.0) S_0)))
 (let ((?x4589 (* (- (/ 1.0 2.0)) A_2)))
 (let (($x23571 (or $x61 (<= 0.0 (+ L_3 ?x369 S_4 (* (- 1.0) A_1) S_0 L_1)) (<= (+ L_3 ?x369 S_4 ?x4400 ?x4589 ?x2108 ?x6081) 0.0))))
 (let (($x39089 (or $x61 (<= (+ ?x4589 ?x2108 ?x6081 ?x4400) (- 5.0)) (<= (+ ?x366 A_1 ?x239 L_2 B) (- 5.0)))))
 (let ((?x969 (* 3.0 L_2)))
 (let ((?x1012 (* (- 3.0) A_2)))
 (let ((?x1959 (* 2.0 A_3)))
 (let ((?x2155 (* (- 2.0) L_3)))
 (let (($x474 (<= 0.0 (+ L_3 ?x369 ?x964 (* (- 1.0) A_1) L_1 ?x973 ?x230))))
 (let (($x27283 (or $x71 (not $x474) (= (+ L_3 ?x369 L_1 (* (- 1.0) A_1) ?x230 ?x964 ?x973) 0.0))))
 (let (($x10359 (<= (+ ?x1594 ?x1595 ?x230 (* 3.0 A_2) ?x1097 (* (- 3.0) L_2) L_0) 0.0)))
 (let (($x16762 (or $x1388 (<= (+ L_3 ?x369 S_4 (* (- (/ 1.0 2.0)) S_3) ?x2108) 0.0) (<= (+ L_3 ?x369 S_4 A_1 ?x351 ?x239) 0.0))))
 (let ((?x1081 (* (- 3.0) L_2)))
 (let ((?x338 (* (- 1.0) S_1)))
 (let ((?x1080 (* 3.0 A_2)))
 (let ((?x5478 (* (- (/ 1.0 2.0)) L_2)))
 (let ((?x364 (* (- 1.0) A_1)))
 (let ((?x5738 (* (/ 1.0 2.0) A_2)))
 (let (($x23019 (<= 0.0 (+ ?x5738 ?x364 ?x2108 L_1 ?x5478 ?x4408))))
 (let (($x17447 (<= (+ S_4 (* (- 2.0) L_1) (* 2.0 A_1) ?x2039 ?x1012 ?x969) 0.0)))
 (let ((?x757 (+ L_1 ?x256)))
 (let (($x438 (<= 0.0 ?x757)))
 (let (($x39213 (or $x61 $x23019 (not (<= 0.0 (+ (* (/ 1.0 4.0) S_4) ?x364 (* (/ 3.0 4.0) S_0) L_1))))))
 (let (($x23448 (<= 0.0 (+ (* (/ 1.0 4.0) S_4) ?x364 (* (/ 3.0 4.0) S_0) L_1))))
 (let (($x39396 (or (<= (+ A_2 ?x256 ?x351) 0.0) (<= (+ ?x239 A_1 ?x351) (- 5.0)) (not (<= 0.0 (+ ?x364 (* (/ 1.0 2.0) S_3) ?x2108 L_1))))))
 (let (($x21783 (<= 0.0 (+ ?x364 (* (/ 1.0 2.0) S_3) ?x2108 L_1))))
 (let (($x17768 (or $x61 (<= (+ ?x4422 (* (- (/ 3.0 2.0)) A_2) S_3 ?x2108 (* (/ 3.0 2.0) L_2)) 0.0) (<= (+ ?x239 A_1 ?x1353 ?x961 S_3 ?x960) 0.0))))
 (let (($x15343 (or $x61 (<= (+ ?x366 ?x1097 (* 2.0 S_1) L_2 B L_0) 0.0))))
 (let (($x492 (<= 0.0 (+ ?x239 L_0))))
 (let ((?x1168 (* (- 2.0) B)))
 (let ((?x1074 (* (- 3.0) L_1)))
 (let ((?x1158 (* (- 2.0) S_1)))
 (let ((?x1072 (* 3.0 A_1)))
 (let (($x38858 (or $x71 (<= (+ L_3 ?x369 ?x1072 ?x1158 ?x1074 ?x1168) 0.0) (<= (+ L_3 ?x369 A_2 A_1 ?x256 ?x338 ?x239) 0.0))))
 (let (($x12015 (or $x71 (<= (+ ?x1594 ?x1595 ?x1353 ?x1097 (* 3.0 S_2) L_0) 0.0))))
 (let (($x22668 (or $x51 $x71 (<= (+ L_3 ?x369 ?x364 (* 2.0 S_2) L_1 ?x1353) 0.0))))
 (let ((?x1069 (* 2.0 L_1)))
 (let ((?x1216 (* 2.0 S_0)))
 (let ((?x1068 (* (- 2.0) A_1)))
 (let (($x5907 (<= (+ S_4 (* 2.0 A_1) (* (- 3.0) S_3) (* (- 2.0) L_1) ?x1168) 0.0)))
 (let (($x1381 (<= (+ L_3 ?x369 ?x1072 (* (- 2.0) A_0) ?x1074 ?x1168 (* 2.0 L_0)) 0.0)))
 (let (($x23922 (or $x71 $x1381 (<= (+ L_3 ?x369 A_2 A_1 ?x1097 ?x256 ?x239 L_0) 0.0))))
 (let (($x892 (<= (+ S_4 ?x1012 (* 2.0 A_1) (* (- 2.0) L_1) ?x969 B) 0.0)))
 (let (($x38828 (or $x51 (<= (+ ?x2039 (* (- 3.0) A_1) S_3 ?x1216 (* 3.0 L_1)) 0.0))))
 (let (($x1067 (<= (+ ?x366 (* 2.0 A_1) ?x338 (* (- 2.0) L_1) L_2 ?x230) 0.0)))
 (let (($x39401 (or $x1388 (<= (+ (* 2.0 A_1) ?x351 ?x338 (* (- 2.0) L_1) ?x1168) 0.0))))
 (let (($x1564 (<= (+ A_1 ?x351 ?x239 ?x230) (- 5.0))))
 (let (($x39646 (or (<= (+ ?x273 A_3 A_1 (* (- 2.0) S_3) ?x239 ?x1168) 0.0) $x1388)))
 (let (($x1362 (<= (+ L_3 ?x369 (* 2.0 A_1) ?x1073 (* (- 2.0) L_1) ?x230) 0.0)))
 (let (($x24068 (or $x71 $x1362 (<= (+ ?x1594 ?x1595 ?x964 A_1 ?x973 ?x1073 ?x239 B) 0.0))))
 (let ((?x5159 (+ S_4 (* 4.0 B) (* (- 4.0) A_1) (* 3.0 S_0) (* 4.0 L_1))))
 (let (($x1360 (<= (+ ?x273 A_3 (* (- 3.0) A_1) ?x1216 (* 3.0 L_1) ?x1353) 0.0)))
 (let (($x1099 (<= (+ ?x366 (* 2.0 A_1) ?x1097 (* (- 2.0) L_1) L_2 ?x230 L_0) 0.0)))
 (let (($x1560 (<= (+ (* 2.0 A_1) ?x1097 ?x351 (* (- 2.0) L_1) ?x1168 L_0) 0.0)))
 (let (($x24160 (or $x1388 (<= (+ ?x1072 (* (- 2.0) S_3) ?x1073 ?x1074 (* (- 3.0) B)) 0.0))))
 (let (($x1061 (<= (+ A_1 ?x344 ?x239 ?x230) 0.0)))
 (let (($x1055 (<= (+ A_2 ?x351 ?x256 ?x230) 0.0)))
 (let (($x108 (>= S_1 S_0)))
 (let (($x111 (>= S_2 S_1)))
 (let (($x114 (>= S_3 S_2)))
 (let (($x119 (>= A_1 A_0)))
 (let (($x120 (>= A_2 A_1)))
 (let (($x121 (>= A_3 A_2)))
 (and (<= (+ A_3 ?x273) S_4) $x121 $x120 $x119 $x114 $x111 $x108 (or $x51 (not $x492)) $x1055 $x1061 (or $x61 (<= (+ ?x366 A_1 ?x239 L_2) (- 5.0))) (or (not $x448) $x71) (or $x61 (<= (+ ?x366 S_2 L_2 B) 0.0)) (or $x61 (not $x438)) (or $x71 (<= (+ L_3 ?x369 S_3 B) 0.0)) (or $x51 (<= (+ ?x273 A_3 ?x366 ?x364 L_2 S_0 L_1) 0.0)) (or $x1388 (<= (+ ?x351 S_1) (- 5.0))) (or $x1388 (<= (+ S_4 (* (- 3.0) S_3) (* 2.0 S_1)) 0.0)) (or $x1388 (<= (+ L_3 ?x369 S_4 ?x351 S_1) 0.0)) (or $x1388 (<= (+ ?x1097 ?x351 (* 2.0 S_1) L_0) 0.0)) $x24160 (or $x51 (<= (+ ?x364 S_1 L_1 B) 0.0)) (or $x1388 $x1560) (or $x61 $x1099) (or $x51 $x71 (<= (+ L_3 ?x369 ?x964 ?x364 ?x239) 0.0) (not $x61)) (or $x51 (<= (+ B ?x364 S_0 L_1) (- 5.0))) (or $x51 $x1360) (or $x51 (<= ?x5159 0.0)) $x24068 $x39646 $x1564 $x39401 (or $x51 (<= (+ ?x1353 ?x1068 S_2 S_0 ?x1069) 0.0)) (or $x61 $x1067) $x38828 (or $x438 $x448 $x492 (= (+ L_3 ?x369 ?x964 ?x364 L_1 ?x973) 0.0)) (or $x51 (<= (+ A_2 ?x1068 S_0 ?x1069 ?x256 B) 0.0)) (or $x61 (<= (+ ?x961 A_1 S_3 ?x239 ?x960 B) 0.0)) (or $x61 (<= (+ ?x961 ?x1072 ?x1073 ?x1074 ?x960 ?x230) 0.0)) (or $x61 $x892) (or $x1388 (<= (+ L_3 ?x369 S_4 ?x230 A_1 ?x351 ?x239) 0.0)) (or $x51 (<= (+ L_3 ?x369 S_4 B ?x364 S_0 L_1) 0.0)) $x23922 (or $x3661 (<= (+ L_3 ?x369 S_4 ?x344 S_0) 0.0)) (or $x71 (<= (+ ?x1189 ?x1355 ?x772 A_1 ?x239 ?x1353) 0.0) $x1923) (or $x71 (<= (+ ?x1594 ?x1595 S_4 ?x1353 S_2) 0.0)) (or $x61 (<= 0.0 (+ ?x369 ?x964 ?x364 L_1 ?x256)) (not $x71)) (or $x61 (<= (+ ?x366 S_1 L_2 B) (- 5.0))) (or $x1388 $x5907) (or $x61 (<= (+ ?x961 S_3 S_1 ?x960 ?x1353) 0.0)) (or $x3661 (<= (+ ?x5738 ?x344 ?x2108 ?x5478 ?x4408) 0.0)) (<= (+ L_1 ?x364 S_1) 0.0) (or $x51 (<= (+ S_4 ?x366 ?x1068 L_2 ?x1216 ?x1069 ?x1353) 0.0)) $x22668 $x12015 (or $x438 (<= (+ L_3 ?x369 S_4 ?x366 A_1 ?x239 L_2) 0.0)) (or $x1388 (<= (+ (* (- 2.0) S_3) (* 3.0 S_1) ?x1073) 0.0)) (or $x3661 (<= (+ ?x344 S_0) (- 5.0))) $x38858 (or $x492 (<= (+ ?x366 ?x364 L_2 S_3 S_0 L_1 B) 0.0)) (or $x61 (<= (+ L_3 ?x369 S_4 ?x366 S_1 L_2 B) 0.0)) $x15343 (or $x3661 (<= (+ ?x366 L_2 S_3 ?x344 S_0) 0.0)) (or $x3661 (<= (+ (* (/ 1.0 3.0) S_3) ?x344 ?x4226) 0.0)) $x17768 (or $x1388 (<= (+ (* (- (/ 1.0 2.0)) S_3) ?x2108) (- 5.0)) $x21783) $x39396 (or $x71 (<= (+ L_3 ?x369 ?x230 ?x964 ?x344 ?x973) 0.0)) (or $x61 (<= (+ ?x961 (* 3.0 S_1) ?x1073 ?x960 ?x1353) 0.0)) (or $x71 (<= (+ ?x1594 ?x1595 S_4 B A_2 ?x256) 0.0)) (or $x61 $x23448 (<= (+ S_4 ?x1353 ?x961 S_0 ?x960) 0.0)) $x39213 (or $x438 $x17447 (not $x23019)) (or $x448 (<= (+ ?x1594 ?x1595 ?x230 ?x1080 ?x338 ?x1081) 0.0)) (or $x61 (<= (+ S_4 ?x1012 (* 2.0 S_1) ?x969 ?x2039) 0.0)) $x16762 (or $x448 $x10359) $x27283 (or $x61 $x474 (<= (+ ?x2155 ?x1959 B ?x1012 S_0 ?x969) 0.0)) (or $x61 (<= (+ ?x273 A_3 B ?x961 S_1 ?x960) 0.0)) $x39089 $x23571 $x39598 (or $x448 $x10901) $x18810 (or $x1388 (<= (+ ?x2604 ?x2822 ?x4408 ?x351 ?x2839) 0.0)) $x18548 (or $x71 (<= (+ ?x1189 ?x1355 ?x2039 (* 4.0 S_2) ?x1073) 0.0)) $x20131 (or $x61 $x1842 (<= (+ ?x273 A_3 ?x961 A_1 ?x960 ?x212) 0.0)) (or $x3661 (<= (+ ?x2799 ?x9579 ?x3383 ?x344 ?x4226) 0.0)) (or $x3661 (<= (+ (* (/ 1.0 4.0) S_4) ?x344 (* (/ 3.0 4.0) S_0)) 0.0)) $x39353 $x19330 $x21393 (or $x71 (<= (+ ?x1594 ?x1595 ?x964 ?x973 ?x1353 S_1 ?x1073) 0.0) $x13350) (or $x71 $x1923 (<= (+ ?x1189 ?x1355 ?x772 ?x239 A_1 ?x2039) 0.0) $x10930) (or (<= (+ ?x273 A_3 ?x366 L_2 ?x230 ?x344 S_0) 0.0) $x3661) (or $x71 $x4771) $x517 $x34 (not (>= (+ L_3 S_4 (* (- 1.0) A_4)) 0.0)) (<= (+ ?x1097 S_0 L_0) 0.0) (<= (+ L_3 ?x369 S_3) 0.0) (<= (+ ?x366 L_2 S_2) 0.0))))))))))))))))))))))))))))))))))))))))))))))))))))))))))))))))))))))))))))))))))))))))))))))))))))))))))))))))))))))))))))))))))
(check-sat)
